(set-logic QF_S)
(set-option :strings-exp true)
(set-option :produce-models true)
(declare-fun sigmaStar_0 () String)
(declare-fun literal_3 () String)
(assert (= literal_3 "\x6d\x6f\x6f\x64\x6c\x65\x76\x65\x72\x73\x69\x6f\x6e\x20"))
(assert (str.in.re literal_3 (re.++ (re.* re.allchar) (re.++ (str.to.re "\x5c\x3c\x53\x43\x52\x49\x50\x54") (re.* re.allchar)))))
(check-sat)
(get-model)
